p cnf 557 1714
-470 -206 0 
-470 306 0 
-206 -471 -217 0 
-206 -471 317 0 
-217 -472 -228 0 
-217 -472 328 0 
-228 -473 -239 0 
-228 -473 339 0 
-474 -206 0 
-474 306 0 
-206 -475 -217 0 
-206 -475 317 0 
-217 -476 -228 0 
-217 -476 328 0 
-228 -477 -239 0 
-228 -477 339 0 
-478 -206 0 
-478 306 0 
-206 -479 -217 0 
-206 -479 317 0 
-217 -480 -228 0 
-217 -480 328 0 
-228 -481 -239 0 
-228 -481 339 0 
-482 -206 0 
-482 306 0 
-206 -483 -217 0 
-206 -483 317 0 
-217 -484 -228 0 
-217 -484 328 0 
-228 -485 -239 0 
-228 -485 339 0 
-486 -206 0 
-486 306 0 
-206 -487 -217 0 
-206 -487 317 0 
-217 -488 -228 0 
-217 -488 328 0 
-228 -489 -239 0 
-228 -489 339 0 
-490 -240 0 
-490 340 0 
-240 -491 -251 0 
-240 -491 351 0 
-251 -492 -262 0 
-251 -492 362 0 
-262 -493 -273 0 
-262 -493 373 0 
-494 -240 0 
-494 340 0 
-240 -495 -251 0 
-240 -495 351 0 
-251 -496 -262 0 
-251 -496 362 0 
-262 -497 -273 0 
-262 -497 373 0 
-498 -240 0 
-498 340 0 
-240 -499 -251 0 
-240 -499 351 0 
-251 -500 -262 0 
-251 -500 362 0 
-262 -501 -273 0 
-262 -501 373 0 
-502 -240 0 
-502 340 0 
-240 -503 -251 0 
-240 -503 351 0 
-251 -504 -262 0 
-251 -504 362 0 
-262 -505 -273 0 
-262 -505 373 0 
-506 -240 0 
-506 340 0 
-240 -507 -251 0 
-240 -507 351 0 
-251 -508 -262 0 
-251 -508 362 0 
-262 -509 -273 0 
-262 -509 373 0 
-76 -510 412 0 
76 -510 456 0 
-374 -511 419 0 
374 -511 458 0 
-380 -512 426 0 
380 -512 460 0 
-386 -513 433 0 
386 -513 462 0 
-82 -514 434 0 
82 -514 463 0 
-393 -515 441 0 
393 -515 465 0 
-399 -516 448 0 
399 -516 467 0 
-405 -517 455 0 
405 -517 469 0 
-88 -518 206 0 
-88 -518 -306 0 
-88 -518 -374 0 
-88 -518 -412 0 
-412 -519 217 0 
-412 -519 -317 0 
-412 -519 -380 0 
-412 -519 -419 0 
-419 -520 228 0 
-419 -520 -328 0 
-419 -520 -386 0 
-419 -520 -426 0 
-426 -521 239 0 
-426 -521 -339 0 
-426 -521 -392 0 
-426 -521 -433 0 
-88 -46 -522 206 0 
-88 -46 -522 -306 0 
-88 -46 -522 -374 0 
-88 -46 -522 -412 0 
-412 -274 -523 217 0 
-412 -274 -523 -317 0 
-412 -274 -523 -380 0 
-412 -274 -523 -419 0 
-419 -275 -524 228 0 
-419 -275 -524 -328 0 
-419 -275 -524 -386 0 
-419 -275 -524 -426 0 
-426 -276 -525 239 0 
-426 -276 -525 -339 0 
-426 -276 -525 -392 0 
-426 -276 -525 -433 0 
-88 -47 -526 206 0 
-88 -47 -526 -306 0 
-88 -47 -526 -374 0 
-88 -47 -526 -412 0 
-412 -278 -527 217 0 
-412 -278 -527 -317 0 
-412 -278 -527 -380 0 
-412 -278 -527 -419 0 
-419 -279 -528 228 0 
-419 -279 -528 -328 0 
-419 -279 -528 -386 0 
-419 -279 -528 -426 0 
-426 -280 -529 239 0 
-426 -280 -529 -339 0 
-426 -280 -529 -392 0 
-426 -280 -529 -433 0 
-88 -48 -530 206 0 
-88 -48 -530 -306 0 
-88 -48 -530 -374 0 
-88 -48 -530 -412 0 
-412 -282 -531 217 0 
-412 -282 -531 -317 0 
-412 -282 -531 -380 0 
-412 -282 -531 -419 0 
-419 -283 -532 228 0 
-419 -283 -532 -328 0 
-419 -283 -532 -386 0 
-419 -283 -532 -426 0 
-426 -284 -533 239 0 
-426 -284 -533 -339 0 
-426 -284 -533 -392 0 
-426 -284 -533 -433 0 
-88 -49 -534 206 0 
-88 -49 -534 -306 0 
-88 -49 -534 -374 0 
-88 -49 -534 -412 0 
-412 -286 -535 217 0 
-412 -286 -535 -317 0 
-412 -286 -535 -380 0 
-412 -286 -535 -419 0 
-419 -287 -536 228 0 
-419 -287 -536 -328 0 
-419 -287 -536 -386 0 
-419 -287 -536 -426 0 
-426 -288 -537 239 0 
-426 -288 -537 -339 0 
-426 -288 -537 -392 0 
-426 -288 -537 -433 0 
-95 -50 -538 240 0 
-95 -50 -538 -340 0 
-95 -50 -538 -393 0 
-95 -50 -538 -434 0 
-434 -290 -539 251 0 
-434 -290 -539 -351 0 
-434 -290 -539 -399 0 
-434 -290 -539 -441 0 
-441 -291 -540 262 0 
-441 -291 -540 -362 0 
-441 -291 -540 -405 0 
-441 -291 -540 -448 0 
-448 -292 -541 273 0 
-448 -292 -541 -373 0 
-448 -292 -541 -411 0 
-448 -292 -541 -455 0 
-95 -542 240 0 
-95 -542 -340 0 
-95 -542 -393 0 
-95 -542 -434 0 
-434 -543 251 0 
-434 -543 -351 0 
-434 -543 -399 0 
-434 -543 -441 0 
-441 -544 262 0 
-441 -544 -362 0 
-441 -544 -405 0 
-441 -544 -448 0 
-448 -545 273 0 
-448 -545 -373 0 
-448 -545 -411 0 
-448 -545 -455 0 
-95 -51 -546 240 0 
-95 -51 -546 -340 0 
-95 -51 -546 -393 0 
-95 -51 -546 -434 0 
-434 -294 -547 251 0 
-434 -294 -547 -351 0 
-434 -294 -547 -399 0 
-434 -294 -547 -441 0 
-441 -295 -548 262 0 
-441 -295 -548 -362 0 
-441 -295 -548 -405 0 
-441 -295 -548 -448 0 
-448 -296 -549 273 0 
-448 -296 -549 -373 0 
-448 -296 -549 -411 0 
-448 -296 -549 -455 0 
-95 -52 -550 240 0 
-95 -52 -550 -340 0 
-95 -52 -550 -393 0 
-95 -52 -550 -434 0 
-434 -298 -551 251 0 
-434 -298 -551 -351 0 
-434 -298 -551 -399 0 
-434 -298 -551 -441 0 
-441 -299 -552 262 0 
-441 -299 -552 -362 0 
-441 -299 -552 -405 0 
-441 -299 -552 -448 0 
-448 -300 -553 273 0 
-448 -300 -553 -373 0 
-448 -300 -553 -411 0 
-448 -300 -553 -455 0 
-95 -53 -554 240 0 
-95 -53 -554 -340 0 
-95 -53 -554 -393 0 
-95 -53 -554 -434 0 
-434 -302 -555 251 0 
-434 -302 -555 -351 0 
-434 -302 -555 -399 0 
-434 -302 -555 -441 0 
-441 -303 -556 262 0 
-441 -303 -556 -362 0 
-441 -303 -556 -405 0 
-441 -303 -556 -448 0 
-448 -304 -557 273 0 
-448 -304 -557 -373 0 
-448 -304 -557 -411 0 
-448 -304 -557 -455 0 
-1 106 0 
1 -106 0 
-106 107 0 
106 -107 0 
-107 108 0 
107 -108 0 
-108 109 0 
108 -109 0 
-2 110 0 
2 -110 0 
-110 111 0 
110 -111 0 
-111 112 0 
111 -112 0 
-112 113 0 
112 -113 0 
-3 114 0 
3 -114 0 
-114 115 0 
114 -115 0 
-115 116 0 
115 -116 0 
-116 117 0 
116 -117 0 
-4 118 0 
4 -118 0 
-118 119 0 
118 -119 0 
-119 120 0 
119 -120 0 
-120 121 0 
120 -121 0 
-5 122 0 
5 -122 0 
-122 123 0 
122 -123 0 
-123 124 0 
123 -124 0 
-124 125 0 
124 -125 0 
-6 126 0 
6 -126 0 
-126 127 0 
126 -127 0 
-127 128 0 
127 -128 0 
-128 129 0 
128 -129 0 
-7 130 0 
7 -130 0 
-130 131 0 
130 -131 0 
-131 132 0 
131 -132 0 
-132 133 0 
132 -133 0 
-8 134 0 
8 -134 0 
-134 135 0 
134 -135 0 
-135 136 0 
135 -136 0 
-136 137 0 
136 -137 0 
-9 138 0 
9 -138 0 
-138 139 0 
138 -139 0 
-139 140 0 
139 -140 0 
-140 141 0 
140 -141 0 
-10 142 0 
10 -142 0 
-142 143 0 
142 -143 0 
-143 144 0 
143 -144 0 
-144 145 0 
144 -145 0 
-11 146 0 
11 -146 0 
-146 147 0 
146 -147 0 
-147 148 0 
147 -148 0 
-148 149 0 
148 -149 0 
-12 150 0 
12 -150 0 
-150 151 0 
150 -151 0 
-151 152 0 
151 -152 0 
-152 153 0 
152 -153 0 
-13 154 0 
13 -154 0 
-154 155 0 
154 -155 0 
-155 156 0 
155 -156 0 
-156 157 0 
156 -157 0 
-14 158 0 
14 -158 0 
-158 159 0 
158 -159 0 
-159 160 0 
159 -160 0 
-160 161 0 
160 -161 0 
-15 162 0 
15 -162 0 
-162 163 0 
162 -163 0 
-163 164 0 
163 -164 0 
-164 165 0 
164 -165 0 
-16 166 0 
16 -166 0 
-166 167 0 
166 -167 0 
-167 168 0 
167 -168 0 
-168 169 0 
168 -169 0 
-17 170 0 
17 -170 0 
-170 171 0 
170 -171 0 
-171 172 0 
171 -172 0 
-172 173 0 
172 -173 0 
-18 174 0 
18 -174 0 
-174 175 0 
174 -175 0 
-175 176 0 
175 -176 0 
-176 177 0 
176 -177 0 
-19 178 0 
19 -178 0 
-178 179 0 
178 -179 0 
-179 180 0 
179 -180 0 
-180 181 0 
180 -181 0 
-20 182 0 
20 -182 0 
-182 183 0 
182 -183 0 
-183 184 0 
183 -184 0 
-184 185 0 
184 -185 0 
-21 186 0 
21 -186 0 
-186 187 0 
186 -187 0 
-187 188 0 
187 -188 0 
-188 189 0 
188 -189 0 
-22 190 0 
22 -190 0 
-190 191 0 
190 -191 0 
-191 192 0 
191 -192 0 
-192 193 0 
192 -193 0 
-23 194 0 
23 -194 0 
-194 195 0 
194 -195 0 
-195 196 0 
195 -196 0 
-196 197 0 
196 -197 0 
-24 198 0 
24 -198 0 
-198 199 0 
198 -199 0 
-199 200 0 
199 -200 0 
-200 201 0 
200 -201 0 
-25 202 0 
25 -202 0 
-202 203 0 
202 -203 0 
-203 204 0 
203 -204 0 
-204 205 0 
204 -205 0 
-470 26 0 
-26 470 0 
-474 27 0 
-27 474 0 
-478 28 0 
-28 478 0 
-482 29 0 
-29 482 0 
-486 30 0 
-30 486 0 
26 27 28 29 30 206 0 
-88 -518 31 0 
-31 88 0 
-31 518 0 
-88 -46 -522 32 0 
-32 88 0 
-32 46 0 
-32 522 0 
-88 -47 -526 33 0 
-33 88 0 
-33 47 0 
-33 526 0 
-88 -48 -530 34 0 
-34 88 0 
-34 48 0 
-34 530 0 
-88 -49 -534 35 0 
-35 88 0 
-35 49 0 
-35 534 0 
-206 -471 207 0 
-207 206 0 
-207 471 0 
-206 -475 208 0 
-208 206 0 
-208 475 0 
-206 -479 209 0 
-209 206 0 
-209 479 0 
-206 -483 210 0 
-210 206 0 
-210 483 0 
-206 -487 211 0 
-211 206 0 
-211 487 0 
207 208 209 210 211 -206 217 0 
-412 -519 212 0 
-212 412 0 
-212 519 0 
-412 -274 -523 213 0 
-213 412 0 
-213 274 0 
-213 523 0 
-412 -278 -527 214 0 
-214 412 0 
-214 278 0 
-214 527 0 
-412 -282 -531 215 0 
-215 412 0 
-215 282 0 
-215 531 0 
-412 -286 -535 216 0 
-216 412 0 
-216 286 0 
-216 535 0 
212 213 214 215 216 206 -217 0 
-217 -472 218 0 
-218 217 0 
-218 472 0 
-217 -476 219 0 
-219 217 0 
-219 476 0 
-217 -480 220 0 
-220 217 0 
-220 480 0 
-217 -484 221 0 
-221 217 0 
-221 484 0 
-217 -488 222 0 
-222 217 0 
-222 488 0 
218 219 220 221 222 -217 228 0 
-419 -520 223 0 
-223 419 0 
-223 520 0 
-419 -275 -524 224 0 
-224 419 0 
-224 275 0 
-224 524 0 
-419 -279 -528 225 0 
-225 419 0 
-225 279 0 
-225 528 0 
-419 -283 -532 226 0 
-226 419 0 
-226 283 0 
-226 532 0 
-419 -287 -536 227 0 
-227 419 0 
-227 287 0 
-227 536 0 
223 224 225 226 227 217 -228 0 
-228 -473 229 0 
-229 228 0 
-229 473 0 
-228 -477 230 0 
-230 228 0 
-230 477 0 
-228 -481 231 0 
-231 228 0 
-231 481 0 
-228 -485 232 0 
-232 228 0 
-232 485 0 
-228 -489 233 0 
-233 228 0 
-233 489 0 
229 230 231 232 233 -228 239 0 
-426 -521 234 0 
-234 426 0 
-234 521 0 
-426 -276 -525 235 0 
-235 426 0 
-235 276 0 
-235 525 0 
-426 -280 -529 236 0 
-236 426 0 
-236 280 0 
-236 529 0 
-426 -284 -533 237 0 
-237 426 0 
-237 284 0 
-237 533 0 
-426 -288 -537 238 0 
-238 426 0 
-238 288 0 
-238 537 0 
234 235 236 237 238 228 -239 0 
-490 36 0 
-36 490 0 
-494 37 0 
-37 494 0 
-498 38 0 
-38 498 0 
-502 39 0 
-39 502 0 
-506 40 0 
-40 506 0 
36 37 38 39 40 240 0 
-95 -50 -538 41 0 
-41 95 0 
-41 50 0 
-41 538 0 
-95 -542 42 0 
-42 95 0 
-42 542 0 
-95 -51 -546 43 0 
-43 95 0 
-43 51 0 
-43 546 0 
-95 -52 -550 44 0 
-44 95 0 
-44 52 0 
-44 550 0 
-95 -53 -554 45 0 
-45 95 0 
-45 53 0 
-45 554 0 
-240 -491 241 0 
-241 240 0 
-241 491 0 
-240 -495 242 0 
-242 240 0 
-242 495 0 
-240 -499 243 0 
-243 240 0 
-243 499 0 
-240 -503 244 0 
-244 240 0 
-244 503 0 
-240 -507 245 0 
-245 240 0 
-245 507 0 
241 242 243 244 245 -240 251 0 
-434 -290 -539 246 0 
-246 434 0 
-246 290 0 
-246 539 0 
-434 -543 247 0 
-247 434 0 
-247 543 0 
-434 -294 -547 248 0 
-248 434 0 
-248 294 0 
-248 547 0 
-434 -298 -551 249 0 
-249 434 0 
-249 298 0 
-249 551 0 
-434 -302 -555 250 0 
-250 434 0 
-250 302 0 
-250 555 0 
246 247 248 249 250 240 -251 0 
-251 -492 252 0 
-252 251 0 
-252 492 0 
-251 -496 253 0 
-253 251 0 
-253 496 0 
-251 -500 254 0 
-254 251 0 
-254 500 0 
-251 -504 255 0 
-255 251 0 
-255 504 0 
-251 -508 256 0 
-256 251 0 
-256 508 0 
252 253 254 255 256 -251 262 0 
-441 -291 -540 257 0 
-257 441 0 
-257 291 0 
-257 540 0 
-441 -544 258 0 
-258 441 0 
-258 544 0 
-441 -295 -548 259 0 
-259 441 0 
-259 295 0 
-259 548 0 
-441 -299 -552 260 0 
-260 441 0 
-260 299 0 
-260 552 0 
-441 -303 -556 261 0 
-261 441 0 
-261 303 0 
-261 556 0 
257 258 259 260 261 251 -262 0 
-262 -493 263 0 
-263 262 0 
-263 493 0 
-262 -497 264 0 
-264 262 0 
-264 497 0 
-262 -501 265 0 
-265 262 0 
-265 501 0 
-262 -505 266 0 
-266 262 0 
-266 505 0 
-262 -509 267 0 
-267 262 0 
-267 509 0 
263 264 265 266 267 -262 273 0 
-448 -292 -541 268 0 
-268 448 0 
-268 292 0 
-268 541 0 
-448 -545 269 0 
-269 448 0 
-269 545 0 
-448 -296 -549 270 0 
-270 448 0 
-270 296 0 
-270 549 0 
-448 -300 -553 271 0 
-271 448 0 
-271 300 0 
-271 553 0 
-448 -304 -557 272 0 
-272 448 0 
-272 304 0 
-272 557 0 
268 269 270 271 272 262 -273 0 
-46 274 0 
46 -274 0 
-274 275 0 
274 -275 0 
-275 276 0 
275 -276 0 
-276 277 0 
276 -277 0 
-47 278 0 
47 -278 0 
-278 279 0 
278 -279 0 
-279 280 0 
279 -280 0 
-280 281 0 
280 -281 0 
-48 282 0 
48 -282 0 
-282 283 0 
282 -283 0 
-283 284 0 
283 -284 0 
-284 285 0 
284 -285 0 
-49 286 0 
49 -286 0 
-286 287 0 
286 -287 0 
-287 288 0 
287 -288 0 
-288 289 0 
288 -289 0 
-50 290 0 
50 -290 0 
-290 291 0 
290 -291 0 
-291 292 0 
291 -292 0 
-292 293 0 
292 -293 0 
-51 294 0 
51 -294 0 
-294 295 0 
294 -295 0 
-295 296 0 
295 -296 0 
-296 297 0 
296 -297 0 
-52 298 0 
52 -298 0 
-298 299 0 
298 -299 0 
-299 300 0 
299 -300 0 
-300 301 0 
300 -301 0 
-53 302 0 
53 -302 0 
-302 303 0 
302 -303 0 
-303 304 0 
303 -304 0 
-304 305 0 
304 -305 0 
-88 -518 55 0 
-55 88 0 
-55 518 0 
-88 -46 -522 56 0 
-56 88 0 
-56 46 0 
-56 522 0 
-88 -47 -526 57 0 
-57 88 0 
-57 47 0 
-57 526 0 
-88 -48 -530 58 0 
-58 88 0 
-58 48 0 
-58 530 0 
-88 -49 -534 59 0 
-59 88 0 
-59 49 0 
-59 534 0 
55 56 57 58 59 -54 306 0 
-470 60 0 
-60 470 0 
-474 61 0 
-61 474 0 
-478 62 0 
-62 478 0 
-482 63 0 
-63 482 0 
-486 64 0 
-64 486 0 
60 61 62 63 64 54 -306 0 
-412 -519 307 0 
-307 412 0 
-307 519 0 
-412 -274 -523 308 0 
-308 412 0 
-308 274 0 
-308 523 0 
-412 -278 -527 309 0 
-309 412 0 
-309 278 0 
-309 527 0 
-412 -282 -531 310 0 
-310 412 0 
-310 282 0 
-310 531 0 
-412 -286 -535 311 0 
-311 412 0 
-311 286 0 
-311 535 0 
307 308 309 310 311 -306 317 0 
-206 -471 312 0 
-312 206 0 
-312 471 0 
-206 -475 313 0 
-313 206 0 
-313 475 0 
-206 -479 314 0 
-314 206 0 
-314 479 0 
-206 -483 315 0 
-315 206 0 
-315 483 0 
-206 -487 316 0 
-316 206 0 
-316 487 0 
312 313 314 315 316 306 -317 0 
-419 -520 318 0 
-318 419 0 
-318 520 0 
-419 -275 -524 319 0 
-319 419 0 
-319 275 0 
-319 524 0 
-419 -279 -528 320 0 
-320 419 0 
-320 279 0 
-320 528 0 
-419 -283 -532 321 0 
-321 419 0 
-321 283 0 
-321 532 0 
-419 -287 -536 322 0 
-322 419 0 
-322 287 0 
-322 536 0 
318 319 320 321 322 -317 328 0 
-217 -472 323 0 
-323 217 0 
-323 472 0 
-217 -476 324 0 
-324 217 0 
-324 476 0 
-217 -480 325 0 
-325 217 0 
-325 480 0 
-217 -484 326 0 
-326 217 0 
-326 484 0 
-217 -488 327 0 
-327 217 0 
-327 488 0 
323 324 325 326 327 317 -328 0 
-426 -521 329 0 
-329 426 0 
-329 521 0 
-426 -276 -525 330 0 
-330 426 0 
-330 276 0 
-330 525 0 
-426 -280 -529 331 0 
-331 426 0 
-331 280 0 
-331 529 0 
-426 -284 -533 332 0 
-332 426 0 
-332 284 0 
-332 533 0 
-426 -288 -537 333 0 
-333 426 0 
-333 288 0 
-333 537 0 
329 330 331 332 333 -328 339 0 
-228 -473 334 0 
-334 228 0 
-334 473 0 
-228 -477 335 0 
-335 228 0 
-335 477 0 
-228 -481 336 0 
-336 228 0 
-336 481 0 
-228 -485 337 0 
-337 228 0 
-337 485 0 
-228 -489 338 0 
-338 228 0 
-338 489 0 
334 335 336 337 338 328 -339 0 
-95 -50 -538 66 0 
-66 95 0 
-66 50 0 
-66 538 0 
-95 -542 67 0 
-67 95 0 
-67 542 0 
-95 -51 -546 68 0 
-68 95 0 
-68 51 0 
-68 546 0 
-95 -52 -550 69 0 
-69 95 0 
-69 52 0 
-69 550 0 
-95 -53 -554 70 0 
-70 95 0 
-70 53 0 
-70 554 0 
66 67 68 69 70 -65 340 0 
-490 71 0 
-71 490 0 
-494 72 0 
-72 494 0 
-498 73 0 
-73 498 0 
-502 74 0 
-74 502 0 
-506 75 0 
-75 506 0 
71 72 73 74 75 65 -340 0 
-434 -290 -539 341 0 
-341 434 0 
-341 290 0 
-341 539 0 
-434 -543 342 0 
-342 434 0 
-342 543 0 
-434 -294 -547 343 0 
-343 434 0 
-343 294 0 
-343 547 0 
-434 -298 -551 344 0 
-344 434 0 
-344 298 0 
-344 551 0 
-434 -302 -555 345 0 
-345 434 0 
-345 302 0 
-345 555 0 
341 342 343 344 345 -340 351 0 
-240 -491 346 0 
-346 240 0 
-346 491 0 
-240 -495 347 0 
-347 240 0 
-347 495 0 
-240 -499 348 0 
-348 240 0 
-348 499 0 
-240 -503 349 0 
-349 240 0 
-349 503 0 
-240 -507 350 0 
-350 240 0 
-350 507 0 
346 347 348 349 350 340 -351 0 
-441 -291 -540 352 0 
-352 441 0 
-352 291 0 
-352 540 0 
-441 -544 353 0 
-353 441 0 
-353 544 0 
-441 -295 -548 354 0 
-354 441 0 
-354 295 0 
-354 548 0 
-441 -299 -552 355 0 
-355 441 0 
-355 299 0 
-355 552 0 
-441 -303 -556 356 0 
-356 441 0 
-356 303 0 
-356 556 0 
352 353 354 355 356 -351 362 0 
-251 -492 357 0 
-357 251 0 
-357 492 0 
-251 -496 358 0 
-358 251 0 
-358 496 0 
-251 -500 359 0 
-359 251 0 
-359 500 0 
-251 -504 360 0 
-360 251 0 
-360 504 0 
-251 -508 361 0 
-361 251 0 
-361 508 0 
357 358 359 360 361 351 -362 0 
-448 -292 -541 363 0 
-363 448 0 
-363 292 0 
-363 541 0 
-448 -545 364 0 
-364 448 0 
-364 545 0 
-448 -296 -549 365 0 
-365 448 0 
-365 296 0 
-365 549 0 
-448 -300 -553 366 0 
-366 448 0 
-366 300 0 
-366 553 0 
-448 -304 -557 367 0 
-367 448 0 
-367 304 0 
-367 557 0 
363 364 365 366 367 -362 373 0 
-262 -493 368 0 
-368 262 0 
-368 493 0 
-262 -497 369 0 
-369 262 0 
-369 497 0 
-262 -501 370 0 
-370 262 0 
-370 501 0 
-262 -505 371 0 
-371 262 0 
-371 505 0 
-262 -509 372 0 
-372 262 0 
-372 509 0 
368 369 370 371 372 362 -373 0 
-88 -518 77 0 
-77 88 0 
-77 518 0 
-88 -46 -522 78 0 
-78 88 0 
-78 46 0 
-78 522 0 
-88 -47 -526 79 0 
-79 88 0 
-79 47 0 
-79 526 0 
-88 -48 -530 80 0 
-80 88 0 
-80 48 0 
-80 530 0 
-88 -49 -534 81 0 
-81 88 0 
-81 49 0 
-81 534 0 
77 78 79 80 81 -76 374 0 
76 -374 0 
-412 -519 375 0 
-375 412 0 
-375 519 0 
-412 -274 -523 376 0 
-376 412 0 
-376 274 0 
-376 523 0 
-412 -278 -527 377 0 
-377 412 0 
-377 278 0 
-377 527 0 
-412 -282 -531 378 0 
-378 412 0 
-378 282 0 
-378 531 0 
-412 -286 -535 379 0 
-379 412 0 
-379 286 0 
-379 535 0 
375 376 377 378 379 -374 380 0 
374 -380 0 
-419 -520 381 0 
-381 419 0 
-381 520 0 
-419 -275 -524 382 0 
-382 419 0 
-382 275 0 
-382 524 0 
-419 -279 -528 383 0 
-383 419 0 
-383 279 0 
-383 528 0 
-419 -283 -532 384 0 
-384 419 0 
-384 283 0 
-384 532 0 
-419 -287 -536 385 0 
-385 419 0 
-385 287 0 
-385 536 0 
381 382 383 384 385 -380 386 0 
380 -386 0 
-426 -521 387 0 
-387 426 0 
-387 521 0 
-426 -276 -525 388 0 
-388 426 0 
-388 276 0 
-388 525 0 
-426 -280 -529 389 0 
-389 426 0 
-389 280 0 
-389 529 0 
-426 -284 -533 390 0 
-390 426 0 
-390 284 0 
-390 533 0 
-426 -288 -537 391 0 
-391 426 0 
-391 288 0 
-391 537 0 
387 388 389 390 391 -386 392 0 
386 -392 0 
-95 -50 -538 83 0 
-83 95 0 
-83 50 0 
-83 538 0 
-95 -542 84 0 
-84 95 0 
-84 542 0 
-95 -51 -546 85 0 
-85 95 0 
-85 51 0 
-85 546 0 
-95 -52 -550 86 0 
-86 95 0 
-86 52 0 
-86 550 0 
-95 -53 -554 87 0 
-87 95 0 
-87 53 0 
-87 554 0 
83 84 85 86 87 -82 393 0 
82 -393 0 
-434 -290 -539 394 0 
-394 434 0 
-394 290 0 
-394 539 0 
-434 -543 395 0 
-395 434 0 
-395 543 0 
-434 -294 -547 396 0 
-396 434 0 
-396 294 0 
-396 547 0 
-434 -298 -551 397 0 
-397 434 0 
-397 298 0 
-397 551 0 
-434 -302 -555 398 0 
-398 434 0 
-398 302 0 
-398 555 0 
394 395 396 397 398 -393 399 0 
393 -399 0 
-441 -291 -540 400 0 
-400 441 0 
-400 291 0 
-400 540 0 
-441 -544 401 0 
-401 441 0 
-401 544 0 
-441 -295 -548 402 0 
-402 441 0 
-402 295 0 
-402 548 0 
-441 -299 -552 403 0 
-403 441 0 
-403 299 0 
-403 552 0 
-441 -303 -556 404 0 
-404 441 0 
-404 303 0 
-404 556 0 
400 401 402 403 404 -399 405 0 
399 -405 0 
-448 -292 -541 406 0 
-406 448 0 
-406 292 0 
-406 541 0 
-448 -545 407 0 
-407 448 0 
-407 545 0 
-448 -296 -549 408 0 
-408 448 0 
-408 296 0 
-408 549 0 
-448 -300 -553 409 0 
-409 448 0 
-409 300 0 
-409 553 0 
-448 -304 -557 410 0 
-410 448 0 
-410 304 0 
-410 557 0 
406 407 408 409 410 -405 411 0 
405 -411 0 
-88 -518 89 0 
-89 88 0 
-89 518 0 
-88 -46 -522 90 0 
-90 88 0 
-90 46 0 
-90 522 0 
-88 -47 -526 91 0 
-91 88 0 
-91 47 0 
-91 526 0 
-88 -48 -530 92 0 
-92 88 0 
-92 48 0 
-92 530 0 
-88 -49 -534 93 0 
-93 88 0 
-93 49 0 
-93 534 0 
89 90 91 92 93 -88 412 0 
-76 -510 94 0 
-94 76 0 
-94 510 0 
94 88 -412 0 
-412 -519 413 0 
-413 412 0 
-413 519 0 
-412 -274 -523 414 0 
-414 412 0 
-414 274 0 
-414 523 0 
-412 -278 -527 415 0 
-415 412 0 
-415 278 0 
-415 527 0 
-412 -282 -531 416 0 
-416 412 0 
-416 282 0 
-416 531 0 
-412 -286 -535 417 0 
-417 412 0 
-417 286 0 
-417 535 0 
413 414 415 416 417 -412 419 0 
-374 -511 418 0 
-418 374 0 
-418 511 0 
418 412 -419 0 
-419 -520 420 0 
-420 419 0 
-420 520 0 
-419 -275 -524 421 0 
-421 419 0 
-421 275 0 
-421 524 0 
-419 -279 -528 422 0 
-422 419 0 
-422 279 0 
-422 528 0 
-419 -283 -532 423 0 
-423 419 0 
-423 283 0 
-423 532 0 
-419 -287 -536 424 0 
-424 419 0 
-424 287 0 
-424 536 0 
420 421 422 423 424 -419 426 0 
-380 -512 425 0 
-425 380 0 
-425 512 0 
425 419 -426 0 
-426 -521 427 0 
-427 426 0 
-427 521 0 
-426 -276 -525 428 0 
-428 426 0 
-428 276 0 
-428 525 0 
-426 -280 -529 429 0 
-429 426 0 
-429 280 0 
-429 529 0 
-426 -284 -533 430 0 
-430 426 0 
-430 284 0 
-430 533 0 
-426 -288 -537 431 0 
-431 426 0 
-431 288 0 
-431 537 0 
427 428 429 430 431 -426 433 0 
-386 -513 432 0 
-432 386 0 
-432 513 0 
432 426 -433 0 
-95 -50 -538 96 0 
-96 95 0 
-96 50 0 
-96 538 0 
-95 -542 97 0 
-97 95 0 
-97 542 0 
-95 -51 -546 98 0 
-98 95 0 
-98 51 0 
-98 546 0 
-95 -52 -550 99 0 
-99 95 0 
-99 52 0 
-99 550 0 
-95 -53 -554 100 0 
-100 95 0 
-100 53 0 
-100 554 0 
96 97 98 99 100 -95 434 0 
-82 -514 101 0 
-101 82 0 
-101 514 0 
101 95 -434 0 
-434 -290 -539 435 0 
-435 434 0 
-435 290 0 
-435 539 0 
-434 -543 436 0 
-436 434 0 
-436 543 0 
-434 -294 -547 437 0 
-437 434 0 
-437 294 0 
-437 547 0 
-434 -298 -551 438 0 
-438 434 0 
-438 298 0 
-438 551 0 
-434 -302 -555 439 0 
-439 434 0 
-439 302 0 
-439 555 0 
435 436 437 438 439 -434 441 0 
-393 -515 440 0 
-440 393 0 
-440 515 0 
440 434 -441 0 
-441 -291 -540 442 0 
-442 441 0 
-442 291 0 
-442 540 0 
-441 -544 443 0 
-443 441 0 
-443 544 0 
-441 -295 -548 444 0 
-444 441 0 
-444 295 0 
-444 548 0 
-441 -299 -552 445 0 
-445 441 0 
-445 299 0 
-445 552 0 
-441 -303 -556 446 0 
-446 441 0 
-446 303 0 
-446 556 0 
442 443 444 445 446 -441 448 0 
-399 -516 447 0 
-447 399 0 
-447 516 0 
447 441 -448 0 
-448 -292 -541 449 0 
-449 448 0 
-449 292 0 
-449 541 0 
-448 -545 450 0 
-450 448 0 
-450 545 0 
-448 -296 -549 451 0 
-451 448 0 
-451 296 0 
-451 549 0 
-448 -300 -553 452 0 
-452 448 0 
-452 300 0 
-452 553 0 
-448 -304 -557 453 0 
-453 448 0 
-453 304 0 
-453 557 0 
449 450 451 452 453 -448 455 0 
-405 -517 454 0 
-454 405 0 
-454 517 0 
454 448 -455 0 
-102 456 0 
76 -510 103 0 
-103 -76 0 
-103 510 0 
103 102 -456 0 
-456 458 0 
374 -511 457 0 
-457 -374 0 
-457 511 0 
457 456 -458 0 
-458 460 0 
380 -512 459 0 
-459 -380 0 
-459 512 0 
459 458 -460 0 
-460 462 0 
386 -513 461 0 
-461 -386 0 
-461 513 0 
461 460 -462 0 
-104 463 0 
82 -514 105 0 
-105 -82 0 
-105 514 0 
105 104 -463 0 
-463 465 0 
393 -515 464 0 
-464 -393 0 
-464 515 0 
464 463 -465 0 
-465 467 0 
399 -516 466 0 
-466 -399 0 
-466 516 0 
466 465 -467 0 
-467 469 0 
405 -517 468 0 
-468 -405 0 
-468 517 0 
468 467 -469 0 
-470 -518 0 
-470 -522 0 
-470 -526 0 
-470 -530 0 
-470 -534 0 
-471 -519 0 
-471 -523 0 
-471 -527 0 
-471 -531 0 
-471 -535 0 
-472 -520 0 
-472 -524 0 
-472 -528 0 
-472 -532 0 
-472 -536 0 
-473 -521 0 
-473 -525 0 
-473 -529 0 
-473 -533 0 
-473 -537 0 
-474 -518 0 
-474 -522 0 
-474 -526 0 
-474 -530 0 
-474 -534 0 
-475 -519 0 
-475 -523 0 
-475 -527 0 
-475 -531 0 
-475 -535 0 
-476 -520 0 
-476 -524 0 
-476 -528 0 
-476 -532 0 
-476 -536 0 
-477 -521 0 
-477 -525 0 
-477 -529 0 
-477 -533 0 
-477 -537 0 
-478 -518 0 
-478 -522 0 
-478 -526 0 
-478 -530 0 
-478 -534 0 
-479 -519 0 
-479 -523 0 
-479 -527 0 
-479 -531 0 
-479 -535 0 
-480 -520 0 
-480 -524 0 
-480 -528 0 
-480 -532 0 
-480 -536 0 
-481 -521 0 
-481 -525 0 
-481 -529 0 
-481 -533 0 
-481 -537 0 
-482 -518 0 
-482 -522 0 
-482 -526 0 
-482 -530 0 
-482 -534 0 
-483 -519 0 
-483 -523 0 
-483 -527 0 
-483 -531 0 
-483 -535 0 
-484 -520 0 
-484 -524 0 
-484 -528 0 
-484 -532 0 
-484 -536 0 
-485 -521 0 
-485 -525 0 
-485 -529 0 
-485 -533 0 
-485 -537 0 
-486 -518 0 
-486 -522 0 
-486 -526 0 
-486 -530 0 
-486 -534 0 
-487 -519 0 
-487 -523 0 
-487 -527 0 
-487 -531 0 
-487 -535 0 
-488 -520 0 
-488 -524 0 
-488 -528 0 
-488 -532 0 
-488 -536 0 
-489 -521 0 
-489 -525 0 
-489 -529 0 
-489 -533 0 
-489 -537 0 
-490 -538 0 
-490 -542 0 
-490 -546 0 
-490 -550 0 
-490 -554 0 
-491 -539 0 
-491 -543 0 
-491 -547 0 
-491 -551 0 
-491 -555 0 
-492 -540 0 
-492 -544 0 
-492 -548 0 
-492 -552 0 
-492 -556 0 
-493 -541 0 
-493 -545 0 
-493 -549 0 
-493 -553 0 
-493 -557 0 
-494 -538 0 
-494 -542 0 
-494 -546 0 
-494 -550 0 
-494 -554 0 
-495 -539 0 
-495 -543 0 
-495 -547 0 
-495 -551 0 
-495 -555 0 
-496 -540 0 
-496 -544 0 
-496 -548 0 
-496 -552 0 
-496 -556 0 
-497 -541 0 
-497 -545 0 
-497 -549 0 
-497 -553 0 
-497 -557 0 
-498 -538 0 
-498 -542 0 
-498 -546 0 
-498 -550 0 
-498 -554 0 
-499 -539 0 
-499 -543 0 
-499 -547 0 
-499 -551 0 
-499 -555 0 
-500 -540 0 
-500 -544 0 
-500 -548 0 
-500 -552 0 
-500 -556 0 
-501 -541 0 
-501 -545 0 
-501 -549 0 
-501 -553 0 
-501 -557 0 
-502 -538 0 
-502 -542 0 
-502 -546 0 
-502 -550 0 
-502 -554 0 
-503 -539 0 
-503 -543 0 
-503 -547 0 
-503 -551 0 
-503 -555 0 
-504 -540 0 
-504 -544 0 
-504 -548 0 
-504 -552 0 
-504 -556 0 
-505 -541 0 
-505 -545 0 
-505 -549 0 
-505 -553 0 
-505 -557 0 
-506 -538 0 
-506 -542 0 
-506 -546 0 
-506 -550 0 
-506 -554 0 
-507 -539 0 
-507 -543 0 
-507 -547 0 
-507 -551 0 
-507 -555 0 
-508 -540 0 
-508 -544 0 
-508 -548 0 
-508 -552 0 
-508 -556 0 
-509 -541 0 
-509 -545 0 
-509 -549 0 
-509 -553 0 
-509 -557 0 
-510 -518 0 
-510 -522 0 
-510 -526 0 
-510 -530 0 
-510 -534 0 
-511 -519 0 
-511 -523 0 
-511 -527 0 
-511 -531 0 
-511 -535 0 
-512 -520 0 
-512 -524 0 
-512 -528 0 
-512 -532 0 
-512 -536 0 
-513 -521 0 
-513 -525 0 
-513 -529 0 
-513 -533 0 
-513 -537 0 
-514 -538 0 
-514 -542 0 
-514 -546 0 
-514 -550 0 
-514 -554 0 
-515 -539 0 
-515 -543 0 
-515 -547 0 
-515 -551 0 
-515 -555 0 
-516 -540 0 
-516 -544 0 
-516 -548 0 
-516 -552 0 
-516 -556 0 
-517 -541 0 
-517 -545 0 
-517 -549 0 
-517 -553 0 
-517 -557 0 
